642142
186,171,150,90,109,170,142,4,21,217,228,88,146,12,187,103,224,129,153,33,38,203,104,6,68,9,101,184,161,116,166,96,91,26,144,145,211,156,5,44,64,137,60,185,189,16,118,32,72,1,63,7,210,183,20,117,22,89,107,196,179,192,37,34,205,75,215,78,130,81,40,27,169,102,62,55,87,35,151,28,50,108,94,36,112,155,133,229,162,135,140,71,49,67,74,83,157,39,207,43,147,127,163,178,31,199,98,69,23,159,208,3,226,51,42,160,113,73,209,218,206,86,70,126,122,177,152,191,114,29,193,119,195,136,181,173,124,188,85,167,79,95,84,57,76,174,164,154,65,200,198,10,201,110,120,97,8,138,15,30,220,176,223,17,47,225,13,48,111,134,19,227,194,165,14,214,125,46,197,143,11,139,58,123,25,61,131,148,182,80,132,52,221,59,213,93,168,172,204,45,212,230,2,115,149,82,158,180,121,77,222,41,128,106,141,219,24,66,190,99,202,105,216,100,53,92,175,54,18,56